# Objective value = 3.0387016468677018e+02
x[0] 0
x[1] 1
x[2] 1
x[3] 0
x[4] 0
x[5] 0
x[6] 1
x[7] 1
x[8] 1
x[9] 0
x[10] 0
x[11] 1
x[12] 1
x[13] 1
x[14] 1
x[15] 0
x[16] 0
x[17] 1
x[18] 0
x[19] 0
x[20] 1
x[21] 0
x[22] 0
x[23] 0
x[24] 1
x[25] 1
x[26] 1
x[27] 0
x[28] 0
x[29] 0
x[30] 0
x[31] 1
x[32] 0
x[33] 0
x[34] 0
x[35] 1
x[36] 0
x[37] 0
x[38] 0
x[39] 0
x[40] 0
x[41] 1
x[42] 0
x[43] 1
x[44] 1
x[45] 1
x[46] 1
x[47] 0
x[48] 0
x[49] 0
x[50] 1
x[51] 1
x[52] 0
x[53] 1
x[54] 1
x[55] 1
x[56] 1
x[57] 1
x[58] 0
x[59] 1
x[60] 1
x[61] 0
x[62] 1
x[63] 0
x[64] 0
x[65] 1
x[66] 1
x[67] 0
x[68] 1
x[69] 1
x[70] 0
x[71] 0
x[72] 1
x[73] 1
x[74] 0
x[75] 0
x[76] 1
x[77] 0
x[78] 0
x[79] 0
x[80] 1
x[81] 0
x[82] 1
x[83] 1
x[84] 1
x[85] 1
x[86] 0
x[87] 0
x[88] 0
x[89] 0
x[90] 1
x[91] 1
x[92] 0
x[93] 1
x[94] 1
x[95] 0
x[96] 0
x[97] 1
x[98] 1
x[99] 0
x[100] 1
x[101] 1
x[102] 0
x[103] 0
x[104] 1
x[105] 0
x[106] 1
x[107] 0
x[108] 0
x[109] 1
x[110] 1
x[111] 0
x[112] 1
x[113] 0
x[114] 1
x[115] 1
x[116] 0
x[117] 1
x[118] 0
x[119] 1
x[120] 1
x[121] 0
x[122] 1
x[123] 0
x[124] 1
x[125] 0
x[126] 0
x[127] 1
x[128] 1
x[129] 1
x[130] 0
x[131] 0
x[132] 0
x[133] 1
x[134] 1
x[135] 1
x[136] 1
x[137] 1
x[138] 1
x[139] 0
x[140] 1
x[141] 0
x[142] 0
x[143] 1
x[144] 0
x[145] 0
x[146] 0
x[147] 0
x[148] 0
x[149] 0
x[150] 0
x[151] 1
x[152] 0
x[153] 1
x[154] 1
x[155] 1
x[156] 0
x[157] 0
x[158] 1
x[159] 1
x[160] 1
x[161] 1
x[162] 0
x[163] 0
x[164] 0
x[165] 1
x[166] 1
x[167] 0
x[168] 0
x[169] 1
x[170] 1
x[171] 0
x[172] 1
x[173] 1
x[174] 1
x[175] 0
x[176] 0
x[177] 0
x[178] 1
x[179] 1
x[180] 1
x[181] 1
x[182] 0
x[183] 1
x[184] 0
x[185] 1
x[186] 1
x[187] 1
x[188] 0
x[189] 1
x[190] 0
x[191] 0
x[192] 1
x[193] 0
x[194] 0
x[195] 0
x[196] 0
x[197] 0
x[198] 0
x[199] 0
x[200] 0
x[201] 0
x[202] 1
x[203] 0
x[204] 1
x[205] 1
x[206] 1
x[207] 0
x[208] 0
x[209] 0
x[210] 0
x[211] 1
x[212] 0
x[213] 0
x[214] 0
x[215] 0
x[216] 0
x[217] 0
x[218] 0
x[219] 1
x[220] 1
x[221] 1
x[222] 0
x[223] 0
x[224] 0
x[225] 1
x[226] 0
x[227] 1
x[228] 0
x[229] 1
x[230] 0
x[231] 1
x[232] 1
x[233] 1
x[234] 0
x[235] 0
x[236] 0
x[237] 1
x[238] 0
x[239] 0
x[240] 0
x[241] 1
x[242] 0
x[243] 1
x[244] 1
x[245] 0
x[246] 1
x[247] 0
x[248] 0
x[249] 0
x[250] 0
x[251] 1
x[252] 1
x[253] 1
x[254] 0
x[255] 1
x[256] 1
x[257] 0
x[258] 1
x[259] 1
x[260] 0
x[261] 0
x[262] 1
x[263] 1
x[264] 1
x[265] 0
x[266] 0
x[267] 0
x[268] 0
x[269] 0
x[270] 1
x[271] 1
x[272] 0
x[273] 0
x[274] 0
x[275] 1
x[276] 1
x[277] 1
x[278] 1
x[279] 1
x[280] 1
x[281] 0
x[282] 0
x[283] 1
x[284] 0
x[285] 0
x[286] 0
x[287] 0
x[288] 0
x[289] 1
x[290] 0
x[291] 1
x[292] 0
x[293] 1
x[294] 1
x[295] 1
x[296] 1
x[297] 1
x[298] 0
x[299] 0
x[300] 1
x[301] 0
x[302] 1
x[303] 0
x[304] 0
x[305] 0
x[306] 0
x[307] 1
x[308] 0
x[309] 0
x[310] 0
x[311] 0
x[312] 0
x[313] 1
x[314] 0
x[315] 0
x[316] 1
x[317] 0
x[318] 0
x[319] 0
x[320] 0
x[321] 0
x[322] 0
x[323] 0
x[324] 0
x[325] 0
x[326] 0
x[327] 1
x[328] 0
x[329] 1
x[330] 1
x[331] 1
x[332] 0
x[333] 0
x[334] 1
x[335] 1
x[336] 1
x[337] 1
x[338] 1
x[339] 1
x[340] 0
x[341] 0
x[342] 1
x[343] 0
x[344] 2.5504972903748038e-07
x[345] 0
x[346] 1
x[347] 0
x[348] 0
x[349] 0
x[350] 0
x[351] 0
x[352] 0
x[353] 0
x[354] 0
x[355] 0
x[356] 1
x[357] 1
x[358] 0
x[359] 0
x[360] 0
x[361] 0
x[362] 1
x[363] 0
x[364] 1
x[365] 0
x[366] 1
x[367] 1
x[368] 0
x[369] 1
x[370] 0
x[371] 0
x[372] 0
x[373] 0
x[374] 1
x[375] 0
x[376] 1
x[377] 0
x[378] 0
x[379] 0
x[380] 0
x[381] 0
x[382] 0
x[383] 0
x[384] 0
x[385] 0
x[386] 0
x[387] 1
x[388] 0.999999736666666
x[389] 1
x[390] 1
x[391] 0
x[392] 0
x[393] 0
x[394] 1
x[395] 1
x[396] 1
x[397] 1
x[398] 1
x[399] 1
x[400] 1
x[401] 1
x[402] 0
x[403] 0
x[404] 1
x[405] 1
x[406] 1
x[407] 0
x[408] 1
x[409] 1
x[410] 0
x[411] 0
x[412] 1
x[413] 1
x[414] 0
x[415] 0
x[416] 0
x[417] 1
x[418] 1
x[419] 0
x[420] 1
x[421] 0
x[422] 0
x[423] 1
x[424] 1
x[425] 0
x[426] 0
x[427] 1
x[428] 0
x[429] 1
x[430] 0
x[431] 1
x[432] 0
x[433] 1
x[434] 1
x[435] 1
x[436] 1
x[437] 1
x[438] 0
x[439] 0
x[440] 0
x[441] 0
x[442] 1
x[443] 0
x[444] 0
x[445] 1
x[446] 1
x[447] 0
x[448] 0
x[449] 0
x[450] 0
x[451] 0
x[452] 1
x[453] 1
x[454] 1
x[455] 0
x[456] 0
x[457] 1
x[458] 1
x[459] 1
x[460] 1
x[461] 1
x[462] 1
x[463] 0
x[464] 0
x[465] 1
x[466] 1
x[467] 0
x[468] 0
x[469] 0
x[470] 1
x[471] 1
x[472] 1
x[473] 0
x[474] 0
x[475] 0
x[476] 0
x[477] 0
x[478] 0
x[479] 1
x[480] 1
x[481] 1
x[482] 1
x[483] 1
x[484] 0
x[485] 1
x[486] 1
x[487] 0
x[488] 0
x[489] 1
x[490] 0
x[491] 1
x[492] 1
x[493] 0
x[494] 0
x[495] 1
x[496] 0
x[497] 1
x[498] 1
x[499] 0
x[500] 0
x[501] 0
x[502] 0
x[503] 1
x[504] 0
x[505] 1
x[506] 1
x[507] 0
x[508] 0
x[509] 0
x[510] 1
x[511] 0
x[512] 1
x[513] 0
x[514] 1
x[515] 0
x[516] 1
x[517] 0
x[518] 1
x[519] 1
x[520] 1
x[521] 1
x[522] 1
x[523] 0
x[524] 1
x[525] 0
x[526] 0
x[527] 1
x[528] 0
x[529] 1
x[530] 1
x[531] 0
x[532] 1
x[533] 1
x[534] 1
x[535] 0
x[536] 0
x[537] 1
x[538] 0
x[539] 0
x[540] 0
x[541] 1
x[542] 1
x[543] 0
x[544] 0
x[545] 1
x[546] 1
x[547] 0
x[548] 0
x[549] 0
x[550] 1
x[551] 0
x[552] 0
x[553] 1
x[554] 1
x[555] 0
x[556] 1
x[557] 0
x[558] 1
x[559] 1
x[560] 1
x[561] 1
x[562] 0
x[563] 0
x[564] 0
x[565] 1
x[566] 0
x[567] 1
x[568] 1
x[569] 1
x[570] 0
x[571] 1
x[572] 1
x[573] 1
x[574] 0
x[575] 0
x[576] 1
x[577] 1
x[578] 1
x[579] 0
x[580] 0
x[581] 1
x[582] 1
x[583] 0
x[584] 1
x[585] 0
x[586] 1
x[587] 0
x[588] 0
x[589] 0
x[590] 0
x[591] 1
x[592] 1
x[593] 0
x[594] 0
x[595] 1
x[596] 0
x[597] 1
x[598] 1
x[599] 0
x[600] 1
x[601] 0
x[602] 0
x[603] 0
x[604] 0
x[605] 0
x[606] 0
x[607] 1
x[608] 0
x[609] 0
x[610] 1
x[611] 0
x[612] 0
x[613] 0
x[614] 1
x[615] 1
x[616] 1
x[617] 1
x[618] 0
x[619] 1
x[620] 1
x[621] 0
x[622] 1
x[623] 1
x[624] 0
x[625] 1
x[626] 0
x[627] 0
x[628] 1
x[629] 1
x[630] 0
x[631] 0
x[632] 1
x[633] 0
x[634] 1
x[635] 1
x[636] 2.6060032649971737e-07
x[637] 1
x[638] 1
x[639] 0
x[640] 0
x[641] 1
x[642] 1
x[643] 1
x[644] 1
x[645] 1
x[646] 1
x[647] 0
x[648] 0
x[649] 0
x[650] 1
x[651] 0
x[652] 0
x[653] 0
x[654] 0
x[655] 0
x[656] 1
x[657] 0
x[658] 0
x[659] 1
x[660] 1
x[661] 1
x[662] 0
x[663] 1
x[664] 0
x[665] 1
x[666] 1
x[667] 1
x[668] 0
x[669] 0
x[670] 1
x[671] 1
x[672] 1
x[673] 0
x[674] 0
x[675] 0
x[676] 0
x[677] 1
x[678] 0
x[679] 0
x[680] 0
x[681] 0
x[682] 0
x[683] 0
x[684] 0
x[685] 0
x[686] 1
x[687] 1
x[688] 1
x[689] 1
x[690] 0
x[691] 0
x[692] 0
x[693] 1
x[694] 0
x[695] 1
x[696] 0
x[697] 1
x[698] 0
x[699] 1
x[700] 0
x[701] 1
x[702] 1
x[703] 0
x[704] 1
x[705] 0
x[706] 0
x[707] 0
x[708] 1
x[709] 0
x[710] 0
x[711] 1
x[712] 1
x[713] 1
x[714] 0
x[715] 0
x[716] 1
x[717] 0
x[718] 0
x[719] 1
x[720] 0
x[721] 1
x[722] 1
x[723] 0
x[724] 0
x[725] 1
x[726] 1
x[727] 1
x[728] 1
x[729] 0
x[730] 0
x[731] 1
x[732] 0
x[733] 1
x[734] 1
x[735] 1
x[736] 0
x[737] 0
x[738] 0
x[739] 0
x[740] 0
x[741] 1
x[742] 0
x[743] 1
x[744] 0
x[745] 0
x[746] 1
x[747] 0
x[748] 0
x[749] 1
x[750] 0
x[751] 1
x[752] 0
x[753] 1
x[754] 1
x[755] 0
x[756] 1
x[757] 1
x[758] 1
x[759] 1
x[760] 0
x[761] 1
x[762] 0
x[763] 1
x[764] 0
x[765] 1
x[766] 1
x[767] 0
x[768] 1
x[769] 1
x[770] 0
x[771] 1
x[772] 1
x[773] 1
x[774] 1
x[775] 0
x[776] 1
x[777] 1
x[778] 1
x[779] 1
x[780] 0
x[781] 1
x[782] 0
x[783] 1
x[784] 0
x[785] 0
x[786] 0
x[787] 1
x[788] 0
x[789] 1
x[790] 0
x[791] 1
x[792] 0
x[793] 1
x[794] 1
x[795] 1
x[796] 1
x[797] 0
x[798] 0
x[799] 0
x[800] 0
x[801] 0
x[802] 0
x[803] 1
x[804] 1
x[805] 0
x[806] 1
x[807] 1
x[808] 0
x[809] 1
x[810] 1
x[811] 1
x[812] 1
x[813] 1
x[814] 1
x[815] 1
x[816] 1
x[817] 0
x[818] 1
x[819] 0
x[820] 1
x[821] 0
x[822] 1
x[823] 0
x[824] 0
x[825] 1
x[826] 0
x[827] 1
x[828] 0
x[829] 0
x[830] 0
x[831] 0
x[832] 1
x[833] 0
x[834] 0
x[835] 1
x[836] 0
x[837] 0
x[838] 1
x[839] 1
x[840] 1
x[841] 1
x[842] 0
x[843] 1
x[844] 1
x[845] 0
x[846] 0
x[847] 0
x[848] 0
x[849] 0
x[850] 1
x[851] 0
x[852] 1
x[853] 1
x[854] 0
x[855] 0
x[856] 1
x[857] 0
x[858] 1
x[859] 0
x[860] 0
x[861] 1
x[862] 0
x[863] 0
x[864] 1
x[865] 1
x[866] 0
x[867] 0
x[868] 1
x[869] 0
x[870] 0
x[871] 1
x[872] 1
x[873] 1
x[874] 0
x[875] 0
x[876] 1
x[877] 0
x[878] 1
x[879] 1
x[880] 0
x[881] 0
x[882] 0
x[883] 0
x[884] 0
x[885] 1
x[886] 1
x[887] 1
x[888] 0
x[889] 1
x[890] 1
x[891] 0
x[892] 0
x[893] 1
x[894] 0
x[895] 1
x[896] 0
x[897] 0
x[898] 1
x[899] 0
x[900] 0
x[901] 0
x[902] 1
x[903] 0
x[904] 1
x[905] 1
x[906] 1
x[907] 0
x[908] 0
x[909] 1
x[910] 0
x[911] 1
x[912] 0
x[913] 0
x[914] 0
x[915] 1
x[916] 1
x[917] 1
x[918] 0
x[919] 0
x[920] 1
x[921] 1
x[922] 1
x[923] 0
x[924] 0
x[925] 0
x[926] 1
x[927] 1
x[928] 1
x[929] 1
x[930] 1
x[931] 0
x[932] 1
x[933] 0
x[934] 1
x[935] 1
x[936] 1
x[937] 1
x[938] 0
x[939] 0
x[940] 1
x[941] 1
x[942] 0
x[943] 0
x[944] 0
x[945] 0
x[946] 1
x[947] 1
x[948] 0
x[949] 1
x[950] 0
x[951] 1
x[952] 0
x[953] 1
x[954] 0
x[955] 0
x[956] 1
x[957] 1
x[958] 1
x[959] 0
x[960] 1
x[961] 1
x[962] 1
x[963] 0
x[964] 0
x[965] 0
x[966] 1
x[967] 0
x[968] 0
x[969] 0
x[970] 0
x[971] 1
x[972] 1
x[973] 0
x[974] 0
x[975] 1
x[976] 0
x[977] 0
x[978] 1
x[979] 1
x[980] 1
x[981] 1
x[982] 1
x[983] 0
x[984] 0
x[985] 1
x[986] 0
x[987] 0
x[988] 0
x[989] 1
x[990] 0
x[991] 0
x[992] 1
x[993] 0
x[994] 0
x[995] 0
x[996] 0
x[997] 0
x[998] 0
x[999] 1
